language Essence 1.3

letting bot_end be [1428, 90, 1427, 1453, 1454, 1433, 1378, 258, 55, 1401, 1429, 0, 1374, 72; int(1..14)]
letting bot_start be [299, 1394, 504, 91, 153, 21, 23, 1454, 1414, 184, 503, 1139, 307, 1372; int(1..14)]
letting buffer_col be 2
letting buffer_row be 2
letting corridor_size be 1
letting n_shelves_col be 8
letting n_shelves_row be 24
letting shelf_col_size be 2
letting shelf_row_size be 1
